p tw 20 53
0 1
0 11
0 5
0 16
0 18
0 15
0 7
1 2
1 3
1 16
1 17
2 8
2 17
2 5
2 19
2 7
2 12
3 8
3 19
3 10
4 5
4 6
4 7
4 19
4 16
5 8
5 15
5 9
5 7
5 19
6 7
6 12
6 11
6 10
7 8
7 13
7 16
7 17
8 9
8 15
8 12
10 11
10 18
10 17
11 16
11 14
11 18
12 13
13 17
13 15
14 15
14 19
15 19
